(declare-const X String)
; pjpoptwql\x2frlnjsportsHost\x3ASubject\x3aYAHOOdestroyed\x21
(assert (not (str.in_re X (str.to_re "pjpoptwql/rlnjsportsHost:Subject:YAHOOdestroyed!\u{a}"))))
; /^[^\s]*\x0D\x0A$/P
(assert (str.in_re X (re.++ (str.to_re "/") (re.* (re.union (str.to_re " ") (str.to_re "\u{9}") (str.to_re "\u{a}") (str.to_re "\u{c}") (str.to_re "\u{d}"))) (str.to_re "\u{d}\u{a}/P\u{a}"))))
(check-sat)
